75589.0
1531
0 1 2 4 5 6 8 11 12 13 14 16 19 21 22 23 24 25 26 27 28 30 31 32 33 34 36 38 40 41 42 45 46 47 49 50 52 53 59 61 63 65 66 67 68 69 70 71 74 77 78 81 82 83 84 85 86 87 90 91 92 95 96 98 99 